WARNING: for repeatability, setting FPU to use double precision
============================[ Problem Statistics ]=============================
|                                                                             |
|  Number of variables:           100                                         |
|  Number of clauses:             449                                         |
|  Parse time:                   0.00 s                                       |
|  Eliminated clauses:           0.00 Mb                                      |
|  Simplification time:          0.00 s                                       |
|                                                                             |
============================[ Search Statistics ]==============================
| Conflicts |          ORIGINAL         |          LEARNT          | Progress |
|           |    Vars  Clauses Literals |    Limit  Clauses Lit/Cl |          |
===============================================================================
|       100 |      96      442     1357 |      162      100      6 |  0.030 % |
===============================================================================
restarts              : 2
conflicts             : 173            (57133 /sec)
decisions             : 237            (0.00 % random) (78269 /sec)
propagations          : 3781           (1248679 /sec)
conflict literals     : 1080           (18.55 % deleted)
Memory used           : 13.00 MB
CPU time              : 0.003028 s

SATISFIABLE
